10110101111100100110101111010010010011100011000010001110011100110011110101100001000011011010010101011000110000000111110000100100011100010011010101010101111001100110010011100110111110111111100101111111110110101000100010010000100100011110000001011001100100111111110100000000011110011111011101110011100011100111100000010001011110101010110101011110010101111000110111011011100100011101100111110011111001110110110010011000010101000001010100100001100111010111001001111000000010000111101000001001001001001000001011111111001001001101011000101011011100100001110000010111000101111111000101001000110011100111100011010101111110001010111101001100100101001111001111111010001101011100011000100001111000001001101000100110111100100111010100000010101111100101000011100101111010101111101011011111001000011001001110101010001101011100100101100101100110110001100100011000001000011100100110110111010110111000011100010010